[9, 13, 21, 22, 23, 24, 25, 26]
[[  0, 46],[  0, 53, 58, 79,  5, 33, 84], [  0, 64, 36, 75, 16,100, 56, 91, 65, 41, 54, 96, 85, 73, 20], [  0, 37, 43, 42, 30, 38, 89, 59, 48, 22, 78, 31, 29, 47, 32, 35, 28, 17], [  0, 19, 97, 23, 60, 51, 81, 80,  8, 76, 18, 12, 77,  2, 62, 15, 44, 57], [  0, 40,  9, 39, 52, 92, 50, 83, 98,  3,  4, 86, 11, 34, 61, 90, 79],[  0, 68, 82, 25, 88, 63, 70, 95, 20, 45, 55, 94, 99, 27, 14, 17, 13, 21,53], [  0, 93, 71,  69,   6,  74,   1,   7,  67,  26,  87,  49,  66,  24,  72,  10,   5]]